120 150

47
46
60
47
59
48
57
43
58
41
50
43
45
53
54
46
52
56
44
50
50
46
59
45
60
48
51
46
53
45
49
56
42
59
44
59
49
50
41
59
47
58
50
48
44
58
60
40
50
54
53
43
50
50
50
44
48
58
42
47
50
55
52
58
49
53
54
44
52
43
60
48
43
48
42
60
50
51
49
47
47
56
42
43
55
52
42
52
53
45
51
48
60
43
51
60
41
49
47
56
53
53
41
56
41
48
58
44
59
45
46
49
48
53
43
54
60
50
53
40